NAME: SN_500.hcp
COMMENT: 
TYPE: HCP
DIMENSION: 500
EDGE_DATA_FORMAT : EDGE_LIST
EDGE_DATA_SECTION
1 3
1 5
1 498
2 3
2 6
2 497
3 1
3 2
3 4
4 3
4 8
4 500
5 1
5 7
5 9
6 2
6 7
6 10
7 5
7 6
7 8
8 4
8 7
8 12
9 5
9 11
9 13
10 6
10 11
10 14
11 9
11 10
11 12
12 8
12 11
12 16
13 9
13 15
13 17
14 10
14 15
14 18
15 13
15 14
15 16
16 12
16 15
16 20
17 13
17 19
17 21
18 14
18 19
18 22
19 17
19 18
19 20
20 16
20 19
20 24
21 17
21 23
21 25
22 18
22 23
22 26
23 21
23 22
23 24
24 20
24 23
24 28
25 21
25 27
25 29
26 22
26 27
26 30
27 25
27 26
27 28
28 24
28 27
28 32
29 25
29 31
29 33
30 26
30 31
30 34
31 29
31 30
31 32
32 28
32 31
32 36
33 29
33 35
33 37
34 30
34 35
34 38
35 33
35 34
35 36
36 32
36 35
36 40
37 33
37 39
37 41
38 34
38 39
38 42
39 37
39 38
39 40
40 36
40 39
40 44
41 37
41 43
41 45
42 38
42 43
42 46
43 41
43 42
43 44
44 40
44 43
44 48
45 41
45 47
45 49
46 42
46 47
46 50
47 45
47 46
47 48
48 44
48 47
48 52
49 45
49 51
49 53
50 46
50 51
50 54
51 49
51 50
51 52
52 48
52 51
52 56
53 49
53 55
53 57
54 50
54 55
54 58
55 53
55 54
55 56
56 52
56 55
56 60
57 53
57 59
57 61
58 54
58 59
58 62
59 57
59 58
59 60
60 56
60 59
60 64
61 57
61 63
61 65
62 58
62 63
62 66
63 61
63 62
63 64
64 60
64 63
64 68
65 61
65 67
65 69
66 62
66 67
66 70
67 65
67 66
67 68
68 64
68 67
68 72
69 65
69 71
69 73
70 66
70 71
70 74
71 69
71 70
71 72
72 68
72 71
72 76
73 69
73 75
73 77
74 70
74 75
74 78
75 73
75 74
75 76
76 72
76 75
76 80
77 73
77 79
77 81
78 74
78 79
78 82
79 77
79 78
79 80
80 76
80 79
80 84
81 77
81 83
81 85
82 78
82 83
82 86
83 81
83 82
83 84
84 80
84 83
84 88
85 81
85 87
85 89
86 82
86 87
86 90
87 85
87 86
87 88
88 84
88 87
88 92
89 85
89 91
89 93
90 86
90 91
90 94
91 89
91 90
91 92
92 88
92 91
92 96
93 89
93 95
93 97
94 90
94 95
94 98
95 93
95 94
95 96
96 92
96 95
96 100
97 93
97 99
97 101
98 94
98 99
98 102
99 97
99 98
99 100
100 96
100 99
100 104
101 97
101 103
101 105
102 98
102 103
102 106
103 101
103 102
103 104
104 100
104 103
104 108
105 101
105 107
105 109
106 102
106 107
106 110
107 105
107 106
107 108
108 104
108 107
108 112
109 105
109 111
109 113
110 106
110 111
110 114
111 109
111 110
111 112
112 108
112 111
112 116
113 109
113 115
113 117
114 110
114 115
114 118
115 113
115 114
115 116
116 112
116 115
116 120
117 113
117 119
117 121
118 114
118 119
118 122
119 117
119 118
119 120
120 116
120 119
120 124
121 117
121 123
121 125
122 118
122 123
122 126
123 121
123 122
123 124
124 120
124 123
124 128
125 121
125 127
125 129
126 122
126 127
126 130
127 125
127 126
127 128
128 124
128 127
128 132
129 125
129 131
129 133
130 126
130 131
130 134
131 129
131 130
131 132
132 128
132 131
132 136
133 129
133 135
133 137
134 130
134 135
134 138
135 133
135 134
135 136
136 132
136 135
136 140
137 133
137 139
137 141
138 134
138 139
138 142
139 137
139 138
139 140
140 136
140 139
140 144
141 137
141 143
141 145
142 138
142 143
142 146
143 141
143 142
143 144
144 140
144 143
144 148
145 141
145 147
145 149
146 142
146 147
146 150
147 145
147 146
147 148
148 144
148 147
148 152
149 145
149 151
149 153
150 146
150 151
150 154
151 149
151 150
151 152
152 148
152 151
152 156
153 149
153 155
153 157
154 150
154 155
154 158
155 153
155 154
155 156
156 152
156 155
156 160
157 153
157 159
157 161
158 154
158 159
158 162
159 157
159 158
159 160
160 156
160 159
160 164
161 157
161 163
161 165
162 158
162 163
162 166
163 161
163 162
163 164
164 160
164 163
164 168
165 161
165 167
165 169
166 162
166 167
166 170
167 165
167 166
167 168
168 164
168 167
168 172
169 165
169 171
169 173
170 166
170 171
170 174
171 169
171 170
171 172
172 168
172 171
172 176
173 169
173 175
173 177
174 170
174 175
174 178
175 173
175 174
175 176
176 172
176 175
176 180
177 173
177 179
177 181
178 174
178 179
178 182
179 177
179 178
179 180
180 176
180 179
180 184
181 177
181 183
181 185
182 178
182 183
182 186
183 181
183 182
183 184
184 180
184 183
184 188
185 181
185 187
185 189
186 182
186 187
186 190
187 185
187 186
187 188
188 184
188 187
188 192
189 185
189 191
189 193
190 186
190 191
190 194
191 189
191 190
191 192
192 188
192 191
192 196
193 189
193 195
193 197
194 190
194 195
194 198
195 193
195 194
195 196
196 192
196 195
196 200
197 193
197 199
197 201
198 194
198 199
198 202
199 197
199 198
199 200
200 196
200 199
200 204
201 197
201 203
201 205
202 198
202 203
202 206
203 201
203 202
203 204
204 200
204 203
204 208
205 201
205 207
205 209
206 202
206 207
206 210
207 205
207 206
207 208
208 204
208 207
208 212
209 205
209 211
209 213
210 206
210 211
210 214
211 209
211 210
211 212
212 208
212 211
212 216
213 209
213 215
213 217
214 210
214 215
214 218
215 213
215 214
215 216
216 212
216 215
216 220
217 213
217 219
217 221
218 214
218 219
218 222
219 217
219 218
219 220
220 216
220 219
220 224
221 217
221 223
221 225
222 218
222 223
222 226
223 221
223 222
223 224
224 220
224 223
224 228
225 221
225 227
225 229
226 222
226 227
226 230
227 225
227 226
227 228
228 224
228 227
228 232
229 225
229 231
229 233
230 226
230 231
230 234
231 229
231 230
231 232
232 228
232 231
232 236
233 229
233 235
233 237
234 230
234 235
234 238
235 233
235 234
235 236
236 232
236 235
236 240
237 233
237 239
237 241
238 234
238 239
238 242
239 237
239 238
239 240
240 236
240 239
240 244
241 237
241 243
241 245
242 238
242 243
242 246
243 241
243 242
243 244
244 240
244 243
244 248
245 241
245 247
245 249
246 242
246 247
246 250
247 245
247 246
247 248
248 244
248 247
248 252
249 245
249 251
249 253
250 246
250 251
250 254
251 249
251 250
251 252
252 248
252 251
252 256
253 249
253 255
253 257
254 250
254 255
254 258
255 253
255 254
255 256
256 252
256 255
256 260
257 253
257 259
257 261
258 254
258 259
258 262
259 257
259 258
259 260
260 256
260 259
260 264
261 257
261 263
261 265
262 258
262 263
262 266
263 261
263 262
263 264
264 260
264 263
264 268
265 261
265 267
265 269
266 262
266 267
266 270
267 265
267 266
267 268
268 264
268 267
268 272
269 265
269 271
269 273
270 266
270 271
270 274
271 269
271 270
271 272
272 268
272 271
272 276
273 269
273 275
273 277
274 270
274 275
274 278
275 273
275 274
275 276
276 272
276 275
276 280
277 273
277 279
277 281
278 274
278 279
278 282
279 277
279 278
279 280
280 276
280 279
280 284
281 277
281 283
281 285
282 278
282 283
282 286
283 281
283 282
283 284
284 280
284 283
284 288
285 281
285 287
285 289
286 282
286 287
286 290
287 285
287 286
287 288
288 284
288 287
288 292
289 285
289 291
289 293
290 286
290 291
290 294
291 289
291 290
291 292
292 288
292 291
292 296
293 289
293 295
293 297
294 290
294 295
294 298
295 293
295 294
295 296
296 292
296 295
296 300
297 293
297 299
297 301
298 294
298 299
298 302
299 297
299 298
299 300
300 296
300 299
300 304
301 297
301 303
301 305
302 298
302 303
302 306
303 301
303 302
303 304
304 300
304 303
304 308
305 301
305 307
305 309
306 302
306 307
306 310
307 305
307 306
307 308
308 304
308 307
308 312
309 305
309 311
309 313
310 306
310 311
310 314
311 309
311 310
311 312
312 308
312 311
312 316
313 309
313 315
313 317
314 310
314 315
314 318
315 313
315 314
315 316
316 312
316 315
316 320
317 313
317 319
317 321
318 314
318 319
318 322
319 317
319 318
319 320
320 316
320 319
320 324
321 317
321 323
321 325
322 318
322 323
322 326
323 321
323 322
323 324
324 320
324 323
324 328
325 321
325 327
325 329
326 322
326 327
326 330
327 325
327 326
327 328
328 324
328 327
328 332
329 325
329 331
329 333
330 326
330 331
330 334
331 329
331 330
331 332
332 328
332 331
332 336
333 329
333 335
333 337
334 330
334 335
334 338
335 333
335 334
335 336
336 332
336 335
336 340
337 333
337 339
337 341
338 334
338 339
338 342
339 337
339 338
339 340
340 336
340 339
340 344
341 337
341 343
341 345
342 338
342 343
342 346
343 341
343 342
343 344
344 340
344 343
344 348
345 341
345 347
345 349
346 342
346 347
346 350
347 345
347 346
347 348
348 344
348 347
348 352
349 345
349 351
349 353
350 346
350 351
350 354
351 349
351 350
351 352
352 348
352 351
352 356
353 349
353 355
353 357
354 350
354 355
354 358
355 353
355 354
355 356
356 352
356 355
356 360
357 353
357 359
357 361
358 354
358 359
358 362
359 357
359 358
359 360
360 356
360 359
360 364
361 357
361 363
361 365
362 358
362 363
362 366
363 361
363 362
363 364
364 360
364 363
364 368
365 361
365 367
365 369
366 362
366 367
366 370
367 365
367 366
367 368
368 364
368 367
368 372
369 365
369 371
369 373
370 366
370 371
370 374
371 369
371 370
371 372
372 368
372 371
372 376
373 369
373 375
373 377
374 370
374 375
374 378
375 373
375 374
375 376
376 372
376 375
376 380
377 373
377 379
377 381
378 374
378 379
378 382
379 377
379 378
379 380
380 376
380 379
380 384
381 377
381 383
381 385
382 378
382 383
382 386
383 381
383 382
383 384
384 380
384 383
384 388
385 381
385 387
385 389
386 382
386 387
386 390
387 385
387 386
387 388
388 384
388 387
388 392
389 385
389 391
389 393
390 386
390 391
390 394
391 389
391 390
391 392
392 388
392 391
392 396
393 389
393 395
393 397
394 390
394 395
394 398
395 393
395 394
395 396
396 392
396 395
396 400
397 393
397 399
397 401
398 394
398 399
398 402
399 397
399 398
399 400
400 396
400 399
400 404
401 397
401 403
401 405
402 398
402 403
402 406
403 401
403 402
403 404
404 400
404 403
404 408
405 401
405 407
405 409
406 402
406 407
406 410
407 405
407 406
407 408
408 404
408 407
408 412
409 405
409 411
409 413
410 406
410 411
410 414
411 409
411 410
411 412
412 408
412 411
412 416
413 409
413 415
413 417
414 410
414 415
414 418
415 413
415 414
415 416
416 412
416 415
416 420
417 413
417 419
417 421
418 414
418 419
418 422
419 417
419 418
419 420
420 416
420 419
420 424
421 417
421 423
421 425
422 418
422 423
422 426
423 421
423 422
423 424
424 420
424 423
424 428
425 421
425 427
425 429
426 422
426 427
426 430
427 425
427 426
427 428
428 424
428 427
428 432
429 425
429 431
429 433
430 426
430 431
430 434
431 429
431 430
431 432
432 428
432 431
432 436
433 429
433 435
433 437
434 430
434 435
434 438
435 433
435 434
435 436
436 432
436 435
436 440
437 433
437 439
437 441
438 434
438 439
438 442
439 437
439 438
439 440
440 436
440 439
440 444
441 437
441 443
441 445
442 438
442 443
442 446
443 441
443 442
443 444
444 440
444 443
444 448
445 441
445 447
445 449
446 442
446 447
446 450
447 445
447 446
447 448
448 444
448 447
448 452
449 445
449 451
449 453
450 446
450 451
450 454
451 449
451 450
451 452
452 448
452 451
452 456
453 449
453 455
453 457
454 450
454 455
454 458
455 453
455 454
455 456
456 452
456 455
456 460
457 453
457 459
457 461
458 454
458 459
458 462
459 457
459 458
459 460
460 456
460 459
460 464
461 457
461 463
461 465
462 458
462 463
462 466
463 461
463 462
463 464
464 460
464 463
464 468
465 461
465 467
465 469
466 462
466 467
466 470
467 465
467 466
467 468
468 464
468 467
468 472
469 465
469 471
469 473
470 466
470 471
470 474
471 469
471 470
471 472
472 468
472 471
472 476
473 469
473 475
473 477
474 470
474 475
474 478
475 473
475 474
475 476
476 472
476 475
476 480
477 473
477 479
477 481
478 474
478 479
478 482
479 477
479 478
479 480
480 476
480 479
480 484
481 477
481 483
481 485
482 478
482 483
482 486
483 481
483 482
483 484
484 480
484 483
484 488
485 481
485 487
485 489
486 482
486 487
486 490
487 485
487 486
487 488
488 484
488 487
488 492
489 485
489 491
489 493
490 486
490 491
490 494
491 489
491 490
491 492
492 488
492 491
492 496
493 489
493 495
493 497
494 490
494 495
494 498
495 493
495 494
495 496
496 492
496 495
496 500
497 2
497 493
497 499
498 1
498 494
498 499
499 497
499 498
499 500
500 4
500 496
500 499
333 284
284 333
-1
EOF